checkAllParsing.result.smt2
success
success
success
success
success
success
success
success
success
success
success
sat
(
  (define-fun x () Int
    0)
  (define-fun a () S
    S!val!0)
)
((< (f x 2 )
5 ))
(error "line 60 column 11: proof is not available")
(error "line 61 column 16: unsat core is not available")
()
(error "line 63 column 23: unsat assumptions is not available")
(((f 1 2 ) 3)
 (a S!val!0))
true
(:status unknown)
success
success
Hello, world!
success
success
